n=11;
m=46;
k=6;
initial_edges=[
(1, 10),
(1, 2),
(1, 7),
(1, 11),
(1, 3),
(1, 8),
(1, 9),
(1, 4),
(1, 6),
(1, 5),
(2, 8),
(2, 4),
(2, 3),
(2, 9),
(2, 10),
(2, 6),
(2, 5),
(3, 8),
(3, 10),
(3, 6),
(3, 7),
(3, 5),
(3, 9),
(4, 7),
(4, 10),
(4, 11),
(4, 6),
(4, 9),
(4, 8),
(4, 5),
(5, 9),
(5, 11),
(5, 7),
(5, 6),
(6, 7),
(6, 9),
(6, 11),
(7, 10),
(7, 9),
(7, 8),
(8, 11),
(8, 10),
(8, 9),
(9, 11),
(9, 10),
(10, 11),
];